NAME : XML100_2361_07
DIMENSION : 101
NB_CLUSTERS : 5
CLUSTERING_ALG : KMedoids
CLUSTERING_PARAMS : k(4)
CLUSTERS
1 0
2 2 3 6 10 14 18 19 21 23 25 29 34 35 47 56 63 66 73 80 81 86 96 100
3 4 16 24 26 31 38 43 44 45 49 51 57 58 62 64 65 69 71 75 79 84 87 89 95 99
4 5 7 9 12 15 17 20 27 30 36 37 41 50 54 59 60 67 68 74 76 77 78 82 85 90 91 92 94
5 1 8 11 13 22 28 32 33 39 40 42 46 48 52 53 55 61 70 72 83 88 93 97 98
EOF